instances/knapsack/discrete_knapsack_uncertainty/knapsack_50_11.lp
\ Model knapsack_50_11
\ LP format - for model browsing. Use MPS format to capture full model detail.
\ Signature: 0xe2d4f45d0ac270ee
Minimize
  - 49 x[0] - 33 x[1] - 55 x[2] - 91 x[3] - 56 x[4] - 84 x[5] - 44 x[6]
   - 70 x[7] - 61 x[8] - 61 x[9] - 30 x[10] - 26 x[11] - 98 x[12]
   - 81 x[13] - 82 x[14] - 63 x[15] - 5 x[16] - 53 x[17] - 97 x[18]
   - 92 x[19] - 24 x[20] - 86 x[21] - 63 x[22] - 63 x[23] - 24 x[24]
   - 5 x[25] - 59 x[26] - 50 x[27] - 45 x[28] - 91 x[29] - 40 x[30]
   - 67 x[31] - 75 x[32] - 82 x[33] - 22 x[34] - 20 x[35] - 8 x[36]
   - 2 x[37] - 53 x[38] - 74 x[39] - 39 x[40] - 20 x[41] - 68 x[42]
   - 98 x[43] - 81 x[44] - 74 x[45] - 23 x[46] - 43 x[47] - 47 x[48]
   - 8 x[49]
Subject To
 primal_upper: 28 x[0] + 65 x[1] + 7 x[2] + 32 x[3] + 61 x[4] + 90 x[5]
   + 46 x[6] + 48 x[7] + 78 x[8] + 67 x[9] + 56 x[10] + 80 x[11] + 45 x[12]
   + 21 x[13] + 61 x[14] + 93 x[15] + 14 x[16] + 73 x[17] + 18 x[18]
   + 31 x[19] + 98 x[20] + 56 x[21] + 65 x[22] + 31 x[23] + 57 x[24]
   + 17 x[25] + 19 x[26] + 100 x[27] + 2 x[28] + 92 x[29] + 78 x[30]
   + 100 x[31] + 12 x[32] + 90 x[33] + 21 x[34] + 2 x[35] + 21 x[36]
   + 5 x[37] + 45 x[38] + 19 x[39] + 80 x[40] + 42 x[41] + 31 x[42]
   + 74 x[43] + 8 x[44] + 79 x[45] + 34 x[46] + 14 x[47] + 88 x[48]
   + 65 x[49] + 2.8 r[0] + 6.5 r[1] + 0.7 r[2] + 3.2 r[3] + 6.1 r[4]
   + 9 r[5] + 4.6 r[6] + 4.8 r[7] + 7.8 r[8] + 6.7 r[9] + 5.6 r[10]
   + 8 r[11] + 4.5 r[12] + 2.1 r[13] + 6.1 r[14] + 9.3 r[15] + 1.4 r[16]
   + 7.3 r[17] + 1.8 r[18] + 3.1 r[19] + 9.8 r[20] + 5.6 r[21] + 6.5 r[22]
   + 3.1 r[23] + 5.7 r[24] + 1.7 r[25] + 1.9 r[26] + 10 r[27] + 0.2 r[28]
   + 9.2 r[29] + 7.8 r[30] + 10 r[31] + 1.2 r[32] + 9 r[33] + 2.1 r[34]
   + 0.2 r[35] + 2.1 r[36] + 0.5 r[37] + 4.5 r[38] + 1.9 r[39] + 8 r[40]
   + 4.2 r[41] + 3.1 r[42] + 7.4 r[43] + 0.8 r[44] + 7.9 r[45] + 3.4 r[46]
   + 1.4 r[47] + 8.8 r[48] + 6.5 r[49] <= 234
 primal_lower: 4.551434327035234 x[0] + 0.8660416765099997 x[1]
   + 0.5330920276401041 x[2] + 0.7706039877293612 x[3]
   + 0.8048471172348522 x[4] + 3.01853894977502 x[5]
   + 4.698350110325154 x[6] + 3.301109100420362 x[7]
   + 0.5660713358008591 x[8] + 4.038351847345123 x[9]
   + 4.481090861299973 x[10] + 0.1862767441189733 x[11]
   + 4.473596490007421 x[12] + 3.728074815763639 x[13]
   + 3.753670640155985 x[14] + 2.178070761655108 x[15]
   + 0.8762675471550007 x[16] + 0.0393466543808966 x[17]
   + 1.680472883251431 x[18] + 2.518676543694575 x[19]
   + 4.066463803298744 x[20] + 4.358960792655182 x[21]
   + 1.832595552860862 x[22] + 4.622284668618682 x[23]
   + 5.139563936459418 x[24] + 0.6681993060643436 x[25]
   + 2.777077605570091 x[26] + 1.293675370157186 x[27]
   + 4.778045699408023 x[28] + 2.712499166918836 x[29]
   + 4.392185601409894 x[30] + 0.1530972559866902 x[31]
   + 4.091480909864744 x[32] + 2.0951871325578 x[33]
   + 2.523987250748519 x[34] + 5.006497574208456 x[35]
   + 3.58083988903027 x[36] + 0.8052384851183675 x[37]
   + 3.512671757170479 x[38] + 0.4088356370555957 x[39]
   + 0.2902809093632946 x[40] + 0.1326477307151338 x[41]
   + 3.217129570301418 x[42] + 3.802070327046088 x[43]
   + 3.54644688269855 x[44] + 2.866110593168358 x[45]
   + 4.452502549578557 x[46] + 3.678721162202345 x[47]
   + 2.268225290190014 x[48] + 0.2091960285697226 x[49] + 54 u[0] + 39 u[1]
   + 93 u[2] + 78 u[3] + 83 u[4] + 8 u[5] + 60 u[6] + 10 u[7] + 64 u[8]
   + 69 u[9] + 38 u[10] + 46 u[11] + 51 u[12] + 87 u[13] + 15 u[14]
   + 15 u[15] + 20 u[16] + 31 u[17] + 92 u[18] + 37 u[19] + 4 u[20]
   + 62 u[21] + 87 u[22] + 65 u[23] + 83 u[24] + 79 u[25] + 89 u[26]
   + 14 u[27] + 44 u[28] + 22 u[29] + 40 u[30] + 62 u[31] + 14 u[32]
   + 52 u[33] + 87 u[34] + 72 u[35] + 31 u[36] + 59 u[37] + 35 u[38]
   + 89 u[39] + 82 u[40] + 96 u[41] + 49 u[42] + 92 u[43] + 58 u[44]
   + 57 u[45] + 88 u[46] + 48 u[47] + 98 u[48] + 31 u[49] <= 62059
 mccormick1[0]: - u[0] + r[0] <= 0
 mccormick1[1]: - u[1] + r[1] <= 0
 mccormick1[2]: - u[2] + r[2] <= 0
 mccormick1[3]: - u[3] + r[3] <= 0
 mccormick1[4]: - u[4] + r[4] <= 0
 mccormick1[5]: - u[5] + r[5] <= 0
 mccormick1[6]: - u[6] + r[6] <= 0
 mccormick1[7]: - u[7] + r[7] <= 0
 mccormick1[8]: - u[8] + r[8] <= 0
 mccormick1[9]: - u[9] + r[9] <= 0
 mccormick1[10]: - u[10] + r[10] <= 0
 mccormick1[11]: - u[11] + r[11] <= 0
 mccormick1[12]: - u[12] + r[12] <= 0
 mccormick1[13]: - u[13] + r[13] <= 0
 mccormick1[14]: - u[14] + r[14] <= 0
 mccormick1[15]: - u[15] + r[15] <= 0
 mccormick1[16]: - u[16] + r[16] <= 0
 mccormick1[17]: - u[17] + r[17] <= 0
 mccormick1[18]: - u[18] + r[18] <= 0
 mccormick1[19]: - u[19] + r[19] <= 0
 mccormick1[20]: - u[20] + r[20] <= 0
 mccormick1[21]: - u[21] + r[21] <= 0
 mccormick1[22]: - u[22] + r[22] <= 0
 mccormick1[23]: - u[23] + r[23] <= 0
 mccormick1[24]: - u[24] + r[24] <= 0
 mccormick1[25]: - u[25] + r[25] <= 0
 mccormick1[26]: - u[26] + r[26] <= 0
 mccormick1[27]: - u[27] + r[27] <= 0
 mccormick1[28]: - u[28] + r[28] <= 0
 mccormick1[29]: - u[29] + r[29] <= 0
 mccormick1[30]: - u[30] + r[30] <= 0
 mccormick1[31]: - u[31] + r[31] <= 0
 mccormick1[32]: - u[32] + r[32] <= 0
 mccormick1[33]: - u[33] + r[33] <= 0
 mccormick1[34]: - u[34] + r[34] <= 0
 mccormick1[35]: - u[35] + r[35] <= 0
 mccormick1[36]: - u[36] + r[36] <= 0
 mccormick1[37]: - u[37] + r[37] <= 0
 mccormick1[38]: - u[38] + r[38] <= 0
 mccormick1[39]: - u[39] + r[39] <= 0
 mccormick1[40]: - u[40] + r[40] <= 0
 mccormick1[41]: - u[41] + r[41] <= 0
 mccormick1[42]: - u[42] + r[42] <= 0
 mccormick1[43]: - u[43] + r[43] <= 0
 mccormick1[44]: - u[44] + r[44] <= 0
 mccormick1[45]: - u[45] + r[45] <= 0
 mccormick1[46]: - u[46] + r[46] <= 0
 mccormick1[47]: - u[47] + r[47] <= 0
 mccormick1[48]: - u[48] + r[48] <= 0
 mccormick1[49]: - u[49] + r[49] <= 0
 mccormick2[0]: - x[0] + r[0] <= 0
 mccormick2[1]: - x[1] + r[1] <= 0
 mccormick2[2]: - x[2] + r[2] <= 0
 mccormick2[3]: - x[3] + r[3] <= 0
 mccormick2[4]: - x[4] + r[4] <= 0
 mccormick2[5]: - x[5] + r[5] <= 0
 mccormick2[6]: - x[6] + r[6] <= 0
 mccormick2[7]: - x[7] + r[7] <= 0
 mccormick2[8]: - x[8] + r[8] <= 0
 mccormick2[9]: - x[9] + r[9] <= 0
 mccormick2[10]: - x[10] + r[10] <= 0
 mccormick2[11]: - x[11] + r[11] <= 0
 mccormick2[12]: - x[12] + r[12] <= 0
 mccormick2[13]: - x[13] + r[13] <= 0
 mccormick2[14]: - x[14] + r[14] <= 0
 mccormick2[15]: - x[15] + r[15] <= 0
 mccormick2[16]: - x[16] + r[16] <= 0
 mccormick2[17]: - x[17] + r[17] <= 0
 mccormick2[18]: - x[18] + r[18] <= 0
 mccormick2[19]: - x[19] + r[19] <= 0
 mccormick2[20]: - x[20] + r[20] <= 0
 mccormick2[21]: - x[21] + r[21] <= 0
 mccormick2[22]: - x[22] + r[22] <= 0
 mccormick2[23]: - x[23] + r[23] <= 0
 mccormick2[24]: - x[24] + r[24] <= 0
 mccormick2[25]: - x[25] + r[25] <= 0
 mccormick2[26]: - x[26] + r[26] <= 0
 mccormick2[27]: - x[27] + r[27] <= 0
 mccormick2[28]: - x[28] + r[28] <= 0
 mccormick2[29]: - x[29] + r[29] <= 0
 mccormick2[30]: - x[30] + r[30] <= 0
 mccormick2[31]: - x[31] + r[31] <= 0
 mccormick2[32]: - x[32] + r[32] <= 0
 mccormick2[33]: - x[33] + r[33] <= 0
 mccormick2[34]: - x[34] + r[34] <= 0
 mccormick2[35]: - x[35] + r[35] <= 0
 mccormick2[36]: - x[36] + r[36] <= 0
 mccormick2[37]: - x[37] + r[37] <= 0
 mccormick2[38]: - x[38] + r[38] <= 0
 mccormick2[39]: - x[39] + r[39] <= 0
 mccormick2[40]: - x[40] + r[40] <= 0
 mccormick2[41]: - x[41] + r[41] <= 0
 mccormick2[42]: - x[42] + r[42] <= 0
 mccormick2[43]: - x[43] + r[43] <= 0
 mccormick2[44]: - x[44] + r[44] <= 0
 mccormick2[45]: - x[45] + r[45] <= 0
 mccormick2[46]: - x[46] + r[46] <= 0
 mccormick2[47]: - x[47] + r[47] <= 0
 mccormick2[48]: - x[48] + r[48] <= 0
 mccormick2[49]: - x[49] + r[49] <= 0
 mccormick3[0]: x[0] + u[0] - r[0] <= 1
 mccormick3[1]: x[1] + u[1] - r[1] <= 1
 mccormick3[2]: x[2] + u[2] - r[2] <= 1
 mccormick3[3]: x[3] + u[3] - r[3] <= 1
 mccormick3[4]: x[4] + u[4] - r[4] <= 1
 mccormick3[5]: x[5] + u[5] - r[5] <= 1
 mccormick3[6]: x[6] + u[6] - r[6] <= 1
 mccormick3[7]: x[7] + u[7] - r[7] <= 1
 mccormick3[8]: x[8] + u[8] - r[8] <= 1
 mccormick3[9]: x[9] + u[9] - r[9] <= 1
 mccormick3[10]: x[10] + u[10] - r[10] <= 1
 mccormick3[11]: x[11] + u[11] - r[11] <= 1
 mccormick3[12]: x[12] + u[12] - r[12] <= 1
 mccormick3[13]: x[13] + u[13] - r[13] <= 1
 mccormick3[14]: x[14] + u[14] - r[14] <= 1
 mccormick3[15]: x[15] + u[15] - r[15] <= 1
 mccormick3[16]: x[16] + u[16] - r[16] <= 1
 mccormick3[17]: x[17] + u[17] - r[17] <= 1
 mccormick3[18]: x[18] + u[18] - r[18] <= 1
 mccormick3[19]: x[19] + u[19] - r[19] <= 1
 mccormick3[20]: x[20] + u[20] - r[20] <= 1
 mccormick3[21]: x[21] + u[21] - r[21] <= 1
 mccormick3[22]: x[22] + u[22] - r[22] <= 1
 mccormick3[23]: x[23] + u[23] - r[23] <= 1
 mccormick3[24]: x[24] + u[24] - r[24] <= 1
 mccormick3[25]: x[25] + u[25] - r[25] <= 1
 mccormick3[26]: x[26] + u[26] - r[26] <= 1
 mccormick3[27]: x[27] + u[27] - r[27] <= 1
 mccormick3[28]: x[28] + u[28] - r[28] <= 1
 mccormick3[29]: x[29] + u[29] - r[29] <= 1
 mccormick3[30]: x[30] + u[30] - r[30] <= 1
 mccormick3[31]: x[31] + u[31] - r[31] <= 1
 mccormick3[32]: x[32] + u[32] - r[32] <= 1
 mccormick3[33]: x[33] + u[33] - r[33] <= 1
 mccormick3[34]: x[34] + u[34] - r[34] <= 1
 mccormick3[35]: x[35] + u[35] - r[35] <= 1
 mccormick3[36]: x[36] + u[36] - r[36] <= 1
 mccormick3[37]: x[37] + u[37] - r[37] <= 1
 mccormick3[38]: x[38] + u[38] - r[38] <= 1
 mccormick3[39]: x[39] + u[39] - r[39] <= 1
 mccormick3[40]: x[40] + u[40] - r[40] <= 1
 mccormick3[41]: x[41] + u[41] - r[41] <= 1
 mccormick3[42]: x[42] + u[42] - r[42] <= 1
 mccormick3[43]: x[43] + u[43] - r[43] <= 1
 mccormick3[44]: x[44] + u[44] - r[44] <= 1
 mccormick3[45]: x[45] + u[45] - r[45] <= 1
 mccormick3[46]: x[46] + u[46] - r[46] <= 1
 mccormick3[47]: x[47] + u[47] - r[47] <= 1
 mccormick3[48]: x[48] + u[48] - r[48] <= 1
 mccormick3[49]: x[49] + u[49] - r[49] <= 1
Bounds
Binaries
 x[0] x[1] x[2] x[3] x[4] x[5] x[6] x[7] x[8] x[9] x[10] x[11] x[12] x[13]
 x[14] x[15] x[16] x[17] x[18] x[19] x[20] x[21] x[22] x[23] x[24] x[25]
 x[26] x[27] x[28] x[29] x[30] x[31] x[32] x[33] x[34] x[35] x[36] x[37]
 x[38] x[39] x[40] x[41] x[42] x[43] x[44] x[45] x[46] x[47] x[48] x[49]
 u[0] u[1] u[2] u[3] u[4] u[5] u[6] u[7] u[8] u[9] u[10] u[11] u[12] u[13]
 u[14] u[15] u[16] u[17] u[18] u[19] u[20] u[21] u[22] u[23] u[24] u[25]
 u[26] u[27] u[28] u[29] u[30] u[31] u[32] u[33] u[34] u[35] u[36] u[37]
 u[38] u[39] u[40] u[41] u[42] u[43] u[44] u[45] u[46] u[47] u[48] u[49]
 r[0] r[1] r[2] r[3] r[4] r[5] r[6] r[7] r[8] r[9] r[10] r[11] r[12] r[13]
 r[14] r[15] r[16] r[17] r[18] r[19] r[20] r[21] r[22] r[23] r[24] r[25]
 r[26] r[27] r[28] r[29] r[30] r[31] r[32] r[33] r[34] r[35] r[36] r[37]
 r[38] r[39] r[40] r[41] r[42] r[43] r[44] r[45] r[46] r[47] r[48] r[49]
End
