instances/knapsack/discrete_knapsack_uncertainty/knapsack_50_11.kp
9863
50
234

28 2.8 49
65 6.5 33
7 0.7 55
32 3.2 91
61 6.1 56
90 9.0 84
46 4.6 44
48 4.8 70
78 7.8 61
67 6.7 61
56 5.6 30
80 8.0 26
45 4.5 98
21 2.1 81
61 6.1 82
93 9.3 63
14 1.4 5
73 7.3 53
18 1.8 97
31 3.1 92
98 9.8 24
56 5.6 86
65 6.5 63
31 3.1 63
57 5.7 24
17 1.7 5
19 1.9 59
100 10.0 50
2 0.2 45
92 9.2 91
78 7.8 40
100 10.0 67
12 1.2 75
90 9.0 82
21 2.1 22
2 0.2 20
21 2.1 8
5 0.5 2
45 4.5 53
19 1.9 74
80 8.0 39
42 4.2 20
31 3.1 68
74 7.4 98
8 0.8 81
79 7.9 74
34 3.4 23
14 1.4 43
88 8.8 47
65 6.5 8

62059
264

[4.551434327035234 0.8660416765099997 0.5330920276401041 0.7706039877293612 0.8048471172348522 3.01853894977502 4.698350110325154 3.3011091004203617 0.5660713358008591 4.038351847345123 4.481090861299973 0.1862767441189733 4.473596490007421 3.7280748157636387 3.7536706401559847 2.1780707616551083 0.8762675471550007 0.03934665438089656 1.680472883251431 2.5186765436945753 4.066463803298744 4.358960792655182 1.8325955528608622 4.622284668618682 5.139563936459418 0.6681993060643436 2.777077605570091 1.2936753701571864 4.778045699408023 2.7124991669188363 4.392185601409894 0.15309725598669016 4.091480909864744 2.0951871325577995 2.5239872507485193 5.006497574208456 3.5808398890302704 0.8052384851183675 3.512671757170479 0.40883563705559567 0.2902809093632946 0.1326477307151338 3.217129570301418 3.8020703270460876 3.54644688269855 2.866110593168358 4.452502549578557 3.678721162202345 2.268225290190014 0.2091960285697226]

[54 39 93 78 83 8 60 10 64 69 38 46 51 87 15 15 20 31 92 37 4 62 87 65 83 79 89 14 44 22 40 62 14 52 87 72 31 59 35 89 82 96 49 92 58 57 88 48 98 31]
